n_res = 4;
rc = [ 0, 0, 0, 0 ];
n_tasks = 30;
d = [ 9, 10, 7, 2, 9, 5, 8, 8, 8, 7, 8, 2, 1, 5, 9, 9, 1, 4, 9, 10, 7, 9, 6, 5, 4, 3, 2, 8, 5, 5 ];
rr = [| 0, 0, 0, 0, 0, 0, 0, 0, 0, 0, 0, 0, 0, 0, 0, 0, 0, 0, 0, 0, 0, 0, 0, 0, 0, 0, 0, 0, 0, 0
      | 0, 0, 0, 0, 0, 0, 0, 0, 0, 0, 0, 0, 0, 0, 0, 0, 0, 0, 0, 0, 0, 0, 0, 0, 0, 0, 0, 0, 0, 0
      | 0, 0, 0, 0, 0, 0, 0, 0, 0, 0, 0, 0, 0, 0, 0, 0, 0, 0, 0, 0, 0, 0, 0, 0, 0, 0, 0, 0, 0, 0
      | 0, 0, 0, 0, 0, 0, 0, 0, 0, 0, 0, 0, 0, 0, 0, 0, 0, 0, 0, 0, 0, 0, 0, 0, 0, 0, 0, 0, 0, 0 |];
suc = [ { 4, 9, 23 },
       { 6, 7, 14 },
       { 5, 10, 11 },
       { 7, 8, 12 },
       { 8, 23, 27 },
       { 8, 19, 20 },
       { 10, 18, 21 },
       { 17, 21, 29 },
       { 12, 13, 29 },
       { 15, 17, 30 },
       { 14, 16, 28 },
       { 15, 17, 20 },
       { 14, 15, 18 },
       { 30 },
       { 19, 25 },
       { 23 },
       { 22, 25 },
       { 19, 20, 24 },
       { 26, 27 },
       { 22, 25, 27 },
       { 22, 24 },
       { 26 },
       { 24, 29 },
       { 30 },
       { 26 },
       { 28 },
       { 28 },
       {  },
       {  },
       {  } ];
